Welcome to the CBC MILP Solver 
Version: 2.10.12 
Build Date: Aug 20 2024 

command line - /opt/homebrew/bin/cbc computational_data/real_data/lp/wine_trial_003.lp seconds 10.0 solve solu computational_data/real_data/solutions/wine_trial_003.sol (default strategy 1)
seconds was changed from 1e+100 to 10
Continuous objective value is 3.5 - 0.00 seconds
Cgl0003I 0 fixed, 0 tightened bounds, 118 strengthened rows, 0 substitutions
Cgl0003I 0 fixed, 0 tightened bounds, 126 strengthened rows, 0 substitutions
Cgl0003I 0 fixed, 0 tightened bounds, 119 strengthened rows, 0 substitutions
Cgl0003I 0 fixed, 0 tightened bounds, 106 strengthened rows, 0 substitutions
Cgl0003I 0 fixed, 0 tightened bounds, 78 strengthened rows, 0 substitutions
Cgl0003I 0 fixed, 0 tightened bounds, 45 strengthened rows, 0 substitutions
Cgl0003I 0 fixed, 0 tightened bounds, 26 strengthened rows, 0 substitutions
Cgl0003I 0 fixed, 0 tightened bounds, 19 strengthened rows, 0 substitutions
Cgl0003I 0 fixed, 0 tightened bounds, 16 strengthened rows, 0 substitutions
Cgl0004I processed model has 99 rows, 32 columns (32 integer (32 of which binary)) and 770 elements
Cutoff increment increased from 1e-05 to 0.9999
Cbc0038I Initial state - 5 integers unsatisfied sum - 2.5
Cbc0038I Pass   1: suminf.    2.50000 (5) obj. 3.5 iterations 7
Cbc0038I Pass   2: suminf.    0.00000 (0) obj. 4 iterations 11
Cbc0038I Solution found of 4
Cbc0038I Before mini branch and bound, 26 integers at bound fixed and 0 continuous
Cbc0038I Mini branch and bound did not improve solution (0.01 seconds)
Cbc0038I After 0.01 seconds - Feasibility pump exiting with objective of 4 - took 0.00 seconds
Cbc0012I Integer solution of 4 found by feasibility pump after 0 iterations and 0 nodes (0.01 seconds)
Cbc0001I Search completed - best objective 4, took 0 iterations and 0 nodes (0.01 seconds)
Cbc0035I Maximum depth 0, 4 variables fixed on reduced cost
Cuts at root node changed objective from 3.5 to 3.5
Probing was tried 0 times and created 0 cuts of which 0 were active after adding rounds of cuts (0.000 seconds)
Gomory was tried 0 times and created 0 cuts of which 0 were active after adding rounds of cuts (0.000 seconds)
Knapsack was tried 0 times and created 0 cuts of which 0 were active after adding rounds of cuts (0.000 seconds)
Clique was tried 0 times and created 0 cuts of which 0 were active after adding rounds of cuts (0.000 seconds)
MixedIntegerRounding2 was tried 0 times and created 0 cuts of which 0 were active after adding rounds of cuts (0.000 seconds)
FlowCover was tried 0 times and created 0 cuts of which 0 were active after adding rounds of cuts (0.000 seconds)
TwoMirCuts was tried 0 times and created 0 cuts of which 0 were active after adding rounds of cuts (0.000 seconds)
ZeroHalf was tried 0 times and created 0 cuts of which 0 were active after adding rounds of cuts (0.000 seconds)

Result - Optimal solution found

Objective value:                4.00000000
Enumerated nodes:               0
Total iterations:               0
Time (CPU seconds):             0.01
Time (Wallclock seconds):       0.01

Total time (CPU seconds):       0.01   (Wallclock seconds):       0.01

